; benchmark generated from python API
(set-info :status unknown)
(declare-fun cell_1_1 () Int)
(declare-fun cell_1_2 () Int)
(declare-fun cell_1_3 () Int)
(declare-fun cell_1_4 () Int)
(declare-fun cell_1_5 () Int)
(declare-fun cell_1_6 () Int)
(declare-fun cell_1_7 () Int)
(declare-fun cell_1_8 () Int)
(declare-fun cell_1_9 () Int)
(declare-fun cell_2_1 () Int)
(declare-fun cell_3_1 () Int)
(declare-fun cell_4_1 () Int)
(declare-fun cell_5_1 () Int)
(declare-fun cell_6_1 () Int)
(declare-fun cell_7_1 () Int)
(declare-fun cell_8_1 () Int)
(declare-fun cell_9_1 () Int)
(declare-fun cell_2_2 () Int)
(declare-fun cell_3_2 () Int)
(declare-fun cell_4_2 () Int)
(declare-fun cell_5_2 () Int)
(declare-fun cell_6_2 () Int)
(declare-fun cell_7_2 () Int)
(declare-fun cell_8_2 () Int)
(declare-fun cell_9_2 () Int)
(declare-fun cell_2_3 () Int)
(declare-fun cell_3_3 () Int)
(declare-fun cell_4_3 () Int)
(declare-fun cell_5_3 () Int)
(declare-fun cell_6_3 () Int)
(declare-fun cell_7_3 () Int)
(declare-fun cell_8_3 () Int)
(declare-fun cell_9_3 () Int)
(declare-fun cell_2_4 () Int)
(declare-fun cell_3_4 () Int)
(declare-fun cell_4_4 () Int)
(declare-fun cell_5_4 () Int)
(declare-fun cell_6_4 () Int)
(declare-fun cell_7_4 () Int)
(declare-fun cell_8_4 () Int)
(declare-fun cell_9_4 () Int)
(declare-fun cell_2_5 () Int)
(declare-fun cell_3_5 () Int)
(declare-fun cell_4_5 () Int)
(declare-fun cell_5_5 () Int)
(declare-fun cell_6_5 () Int)
(declare-fun cell_7_5 () Int)
(declare-fun cell_8_5 () Int)
(declare-fun cell_9_5 () Int)
(declare-fun cell_2_6 () Int)
(declare-fun cell_3_6 () Int)
(declare-fun cell_4_6 () Int)
(declare-fun cell_5_6 () Int)
(declare-fun cell_6_6 () Int)
(declare-fun cell_7_6 () Int)
(declare-fun cell_8_6 () Int)
(declare-fun cell_9_6 () Int)
(declare-fun cell_2_7 () Int)
(declare-fun cell_3_7 () Int)
(declare-fun cell_4_7 () Int)
(declare-fun cell_5_7 () Int)
(declare-fun cell_6_7 () Int)
(declare-fun cell_7_7 () Int)
(declare-fun cell_8_7 () Int)
(declare-fun cell_9_7 () Int)
(declare-fun cell_2_8 () Int)
(declare-fun cell_3_8 () Int)
(declare-fun cell_4_8 () Int)
(declare-fun cell_5_8 () Int)
(declare-fun cell_6_8 () Int)
(declare-fun cell_7_8 () Int)
(declare-fun cell_8_8 () Int)
(declare-fun cell_9_8 () Int)
(declare-fun cell_2_9 () Int)
(declare-fun cell_3_9 () Int)
(declare-fun cell_4_9 () Int)
(declare-fun cell_5_9 () Int)
(declare-fun cell_6_9 () Int)
(declare-fun cell_7_9 () Int)
(declare-fun cell_8_9 () Int)
(declare-fun cell_9_9 () Int)
(assert
 (= cell_1_1 9))
(assert
 (= cell_1_2 8))
(assert
 (= cell_1_3 6))
(assert
 (= cell_1_4 3))
(assert
 (= cell_1_5 2))
(assert
 (= cell_1_6 5))
(assert
 (= cell_1_7 1))
(assert
 (= cell_1_8 7))
(assert
 (= cell_1_9 4))
(assert
 (let (($x1679 (= cell_1_1 9)))
 (or (= cell_1_1 1) (= cell_1_1 2) (= cell_1_1 3) (= cell_1_1 4) (= cell_1_1 5) (= cell_1_1 6) (= cell_1_1 7) (= cell_1_1 8) $x1679)))
(assert
 (let (($x4932 (= cell_2_1 9)))
 (let (($x1270 (= cell_2_1 8)))
 (let (($x8453 (= cell_2_1 6)))
 (let (($x1339 (= cell_2_1 3)))
 (or (= cell_2_1 1) (= cell_2_1 2) $x1339 (= cell_2_1 4) (= cell_2_1 5) $x8453 (= cell_2_1 7) $x1270 $x4932))))))
(assert
 (let (($x10090 (= cell_3_1 9)))
 (let (($x5428 (= cell_3_1 8)))
 (let (($x7238 (= cell_3_1 6)))
 (or (= cell_3_1 1) (= cell_3_1 2) (= cell_3_1 3) (= cell_3_1 4) (= cell_3_1 5) $x7238 (= cell_3_1 7) $x5428 $x10090)))))
(assert
 (let (($x3860 (= cell_4_1 9)))
 (or (= cell_4_1 1) (= cell_4_1 2) (= cell_4_1 3) (= cell_4_1 4) (= cell_4_1 5) (= cell_4_1 6) (= cell_4_1 7) (= cell_4_1 8) $x3860)))
(assert
 (let (($x8531 (= cell_5_1 9)))
 (or (= cell_5_1 1) (= cell_5_1 2) (= cell_5_1 3) (= cell_5_1 4) (= cell_5_1 5) (= cell_5_1 6) (= cell_5_1 7) (= cell_5_1 8) $x8531)))
(assert
 (let (($x3569 (= cell_6_1 9)))
 (or (= cell_6_1 1) (= cell_6_1 2) (= cell_6_1 3) (= cell_6_1 4) (= cell_6_1 5) (= cell_6_1 6) (= cell_6_1 7) (= cell_6_1 8) $x3569)))
(assert
 (let (($x3491 (= cell_7_1 9)))
 (or (= cell_7_1 1) (= cell_7_1 2) (= cell_7_1 3) (= cell_7_1 4) (= cell_7_1 5) (= cell_7_1 6) (= cell_7_1 7) (= cell_7_1 8) $x3491)))
(assert
 (let (($x6711 (= cell_8_1 9)))
 (let (($x185 (= cell_8_1 7)))
 (or (= cell_8_1 1) (= cell_8_1 2) (= cell_8_1 3) (= cell_8_1 4) (= cell_8_1 5) (= cell_8_1 6) $x185 (= cell_8_1 8) $x6711))))
(assert
 (let (($x1835 (= cell_9_1 9)))
 (or (= cell_9_1 1) (= cell_9_1 2) (= cell_9_1 3) (= cell_9_1 4) (= cell_9_1 5) (= cell_9_1 6) (= cell_9_1 7) (= cell_9_1 8) $x1835)))
(assert
 (let (($x7310 (= cell_1_2 8)))
 (or (= cell_1_2 1) (= cell_1_2 2) (= cell_1_2 3) (= cell_1_2 4) (= cell_1_2 5) (= cell_1_2 6) (= cell_1_2 7) $x7310 (= cell_1_2 9))))
(assert
 (let (($x7171 (= cell_2_2 9)))
 (let (($x72 (= cell_2_2 8)))
 (let (($x3914 (= cell_2_2 6)))
 (or (= cell_2_2 1) (= cell_2_2 2) (= cell_2_2 3) (= cell_2_2 4) (= cell_2_2 5) $x3914 (= cell_2_2 7) $x72 $x7171)))))
(assert
 (let (($x5414 (= cell_3_2 9)))
 (let (($x8778 (= cell_3_2 8)))
 (let (($x872 (= cell_3_2 6)))
 (or (= cell_3_2 1) (= cell_3_2 2) (= cell_3_2 3) (= cell_3_2 4) (= cell_3_2 5) $x872 (= cell_3_2 7) $x8778 $x5414)))))
(assert
 (let (($x7293 (= cell_4_2 8)))
 (let (($x5970 (= cell_4_2 2)))
 (or (= cell_4_2 1) $x5970 (= cell_4_2 3) (= cell_4_2 4) (= cell_4_2 5) (= cell_4_2 6) (= cell_4_2 7) $x7293 (= cell_4_2 9)))))
(assert
 (let (($x4364 (= cell_5_2 8)))
 (or (= cell_5_2 1) (= cell_5_2 2) (= cell_5_2 3) (= cell_5_2 4) (= cell_5_2 5) (= cell_5_2 6) (= cell_5_2 7) $x4364 (= cell_5_2 9))))
(assert
 (let (($x562 (= cell_6_2 8)))
 (or (= cell_6_2 1) (= cell_6_2 2) (= cell_6_2 3) (= cell_6_2 4) (= cell_6_2 5) (= cell_6_2 6) (= cell_6_2 7) $x562 (= cell_6_2 9))))
(assert
 (let (($x7102 (= cell_7_2 8)))
 (let (($x1846 (= cell_7_2 7)))
 (or (= cell_7_2 1) (= cell_7_2 2) (= cell_7_2 3) (= cell_7_2 4) (= cell_7_2 5) (= cell_7_2 6) $x1846 $x7102 (= cell_7_2 9)))))
(assert
 (let (($x6387 (= cell_8_2 8)))
 (or (= cell_8_2 1) (= cell_8_2 2) (= cell_8_2 3) (= cell_8_2 4) (= cell_8_2 5) (= cell_8_2 6) (= cell_8_2 7) $x6387 (= cell_8_2 9))))
(assert
 (let (($x4770 (= cell_9_2 8)))
 (or (= cell_9_2 1) (= cell_9_2 2) (= cell_9_2 3) (= cell_9_2 4) (= cell_9_2 5) (= cell_9_2 6) (= cell_9_2 7) $x4770 (= cell_9_2 9))))
(assert
 (let (($x10024 (= cell_1_3 6)))
 (or (= cell_1_3 1) (= cell_1_3 2) (= cell_1_3 3) (= cell_1_3 4) (= cell_1_3 5) $x10024 (= cell_1_3 7) (= cell_1_3 8) (= cell_1_3 9))))
(assert
 (let (($x6645 (= cell_2_3 9)))
 (let (($x511 (= cell_2_3 8)))
 (let (($x8378 (= cell_2_3 6)))
 (or (= cell_2_3 1) (= cell_2_3 2) (= cell_2_3 3) (= cell_2_3 4) (= cell_2_3 5) $x8378 (= cell_2_3 7) $x511 $x6645)))))
(assert
 (let (($x3889 (= cell_3_3 9)))
 (let (($x790 (= cell_3_3 8)))
 (let (($x3622 (= cell_3_3 6)))
 (let (($x3167 (= cell_3_3 2)))
 (or (= cell_3_3 1) $x3167 (= cell_3_3 3) (= cell_3_3 4) (= cell_3_3 5) $x3622 (= cell_3_3 7) $x790 $x3889))))))
(assert
 (let (($x2150 (= cell_4_3 6)))
 (or (= cell_4_3 1) (= cell_4_3 2) (= cell_4_3 3) (= cell_4_3 4) (= cell_4_3 5) $x2150 (= cell_4_3 7) (= cell_4_3 8) (= cell_4_3 9))))
(assert
 (let (($x2680 (= cell_5_3 6)))
 (or (= cell_5_3 1) (= cell_5_3 2) (= cell_5_3 3) (= cell_5_3 4) (= cell_5_3 5) $x2680 (= cell_5_3 7) (= cell_5_3 8) (= cell_5_3 9))))
(assert
 (let (($x6063 (= cell_6_3 7)))
 (let (($x1293 (= cell_6_3 6)))
 (or (= cell_6_3 1) (= cell_6_3 2) (= cell_6_3 3) (= cell_6_3 4) (= cell_6_3 5) $x1293 $x6063 (= cell_6_3 8) (= cell_6_3 9)))))
(assert
 (let (($x8304 (= cell_7_3 6)))
 (or (= cell_7_3 1) (= cell_7_3 2) (= cell_7_3 3) (= cell_7_3 4) (= cell_7_3 5) $x8304 (= cell_7_3 7) (= cell_7_3 8) (= cell_7_3 9))))
(assert
 (let (($x6971 (= cell_8_3 6)))
 (or (= cell_8_3 1) (= cell_8_3 2) (= cell_8_3 3) (= cell_8_3 4) (= cell_8_3 5) $x6971 (= cell_8_3 7) (= cell_8_3 8) (= cell_8_3 9))))
(assert
 (let (($x7277 (= cell_9_3 6)))
 (or (= cell_9_3 1) (= cell_9_3 2) (= cell_9_3 3) (= cell_9_3 4) (= cell_9_3 5) $x7277 (= cell_9_3 7) (= cell_9_3 8) (= cell_9_3 9))))
(assert
 (let (($x1565 (= cell_1_4 3)))
 (or (= cell_1_4 1) (= cell_1_4 2) $x1565 (= cell_1_4 4) (= cell_1_4 5) (= cell_1_4 6) (= cell_1_4 7) (= cell_1_4 8) (= cell_1_4 9))))
(assert
 (let (($x1891 (= cell_2_4 5)))
 (let (($x1176 (= cell_2_4 3)))
 (let (($x2074 (= cell_2_4 2)))
 (or (= cell_2_4 1) $x2074 $x1176 (= cell_2_4 4) $x1891 (= cell_2_4 6) (= cell_2_4 7) (= cell_2_4 8) (= cell_2_4 9))))))
(assert
 (let (($x1908 (= cell_3_4 8)))
 (let (($x4029 (= cell_3_4 5)))
 (let (($x9740 (= cell_3_4 3)))
 (let (($x5703 (= cell_3_4 2)))
 (or (= cell_3_4 1) $x5703 $x9740 (= cell_3_4 4) $x4029 (= cell_3_4 6) (= cell_3_4 7) $x1908 (= cell_3_4 9)))))))
(assert
 (let (($x8832 (= cell_4_4 3)))
 (or (= cell_4_4 1) (= cell_4_4 2) $x8832 (= cell_4_4 4) (= cell_4_4 5) (= cell_4_4 6) (= cell_4_4 7) (= cell_4_4 8) (= cell_4_4 9))))
(assert
 (let (($x4352 (= cell_5_4 7)))
 (let (($x6943 (= cell_5_4 3)))
 (or (= cell_5_4 1) (= cell_5_4 2) $x6943 (= cell_5_4 4) (= cell_5_4 5) (= cell_5_4 6) $x4352 (= cell_5_4 8) (= cell_5_4 9)))))
(assert
 (let (($x5329 (= cell_6_4 3)))
 (or (= cell_6_4 1) (= cell_6_4 2) $x5329 (= cell_6_4 4) (= cell_6_4 5) (= cell_6_4 6) (= cell_6_4 7) (= cell_6_4 8) (= cell_6_4 9))))
(assert
 (let (($x6492 (= cell_7_4 3)))
 (or (= cell_7_4 1) (= cell_7_4 2) $x6492 (= cell_7_4 4) (= cell_7_4 5) (= cell_7_4 6) (= cell_7_4 7) (= cell_7_4 8) (= cell_7_4 9))))
(assert
 (let (($x5003 (= cell_8_4 3)))
 (or (= cell_8_4 1) (= cell_8_4 2) $x5003 (= cell_8_4 4) (= cell_8_4 5) (= cell_8_4 6) (= cell_8_4 7) (= cell_8_4 8) (= cell_8_4 9))))
(assert
 (let (($x2103 (= cell_9_4 3)))
 (or (= cell_9_4 1) (= cell_9_4 2) $x2103 (= cell_9_4 4) (= cell_9_4 5) (= cell_9_4 6) (= cell_9_4 7) (= cell_9_4 8) (= cell_9_4 9))))
(assert
 (let (($x6995 (= cell_1_5 2)))
 (or (= cell_1_5 1) $x6995 (= cell_1_5 3) (= cell_1_5 4) (= cell_1_5 5) (= cell_1_5 6) (= cell_1_5 7) (= cell_1_5 8) (= cell_1_5 9))))
(assert
 (let (($x7972 (= cell_2_5 5)))
 (let (($x9517 (= cell_2_5 3)))
 (let (($x7500 (= cell_2_5 2)))
 (or (= cell_2_5 1) $x7500 $x9517 (= cell_2_5 4) $x7972 (= cell_2_5 6) (= cell_2_5 7) (= cell_2_5 8) (= cell_2_5 9))))))
(assert
 (let (($x7444 (= cell_3_5 5)))
 (let (($x480 (= cell_3_5 3)))
 (let (($x607 (= cell_3_5 2)))
 (or (= cell_3_5 1) $x607 $x480 (= cell_3_5 4) $x7444 (= cell_3_5 6) (= cell_3_5 7) (= cell_3_5 8) (= cell_3_5 9))))))
(assert
 (let (($x7475 (= cell_4_5 8)))
 (let (($x3396 (= cell_4_5 7)))
 (let (($x7820 (= cell_4_5 2)))
 (or (= cell_4_5 1) $x7820 (= cell_4_5 3) (= cell_4_5 4) (= cell_4_5 5) (= cell_4_5 6) $x3396 $x7475 (= cell_4_5 9))))))
(assert
 (let (($x6569 (= cell_5_5 2)))
 (or (= cell_5_5 1) $x6569 (= cell_5_5 3) (= cell_5_5 4) (= cell_5_5 5) (= cell_5_5 6) (= cell_5_5 7) (= cell_5_5 8) (= cell_5_5 9))))
(assert
 (let (($x5474 (= cell_6_5 2)))
 (or (= cell_6_5 1) $x5474 (= cell_6_5 3) (= cell_6_5 4) (= cell_6_5 5) (= cell_6_5 6) (= cell_6_5 7) (= cell_6_5 8) (= cell_6_5 9))))
(assert
 (let (($x1259 (= cell_7_5 2)))
 (or (= cell_7_5 1) $x1259 (= cell_7_5 3) (= cell_7_5 4) (= cell_7_5 5) (= cell_7_5 6) (= cell_7_5 7) (= cell_7_5 8) (= cell_7_5 9))))
(assert
 (let (($x1840 (= cell_8_5 2)))
 (or (= cell_8_5 1) $x1840 (= cell_8_5 3) (= cell_8_5 4) (= cell_8_5 5) (= cell_8_5 6) (= cell_8_5 7) (= cell_8_5 8) (= cell_8_5 9))))
(assert
 (let (($x8070 (= cell_9_5 2)))
 (or (= cell_9_5 1) $x8070 (= cell_9_5 3) (= cell_9_5 4) (= cell_9_5 5) (= cell_9_5 6) (= cell_9_5 7) (= cell_9_5 8) (= cell_9_5 9))))
(assert
 (let (($x1148 (= cell_1_6 5)))
 (or (= cell_1_6 1) (= cell_1_6 2) (= cell_1_6 3) (= cell_1_6 4) $x1148 (= cell_1_6 6) (= cell_1_6 7) (= cell_1_6 8) (= cell_1_6 9))))
(assert
 (let (($x4120 (= cell_2_6 5)))
 (let (($x8232 (= cell_2_6 3)))
 (let (($x314 (= cell_2_6 2)))
 (or (= cell_2_6 1) $x314 $x8232 (= cell_2_6 4) $x4120 (= cell_2_6 6) (= cell_2_6 7) (= cell_2_6 8) (= cell_2_6 9))))))
(assert
 (let (($x8675 (= cell_3_6 7)))
 (let (($x5779 (= cell_3_6 5)))
 (let (($x477 (= cell_3_6 3)))
 (let (($x2761 (= cell_3_6 2)))
 (or (= cell_3_6 1) $x2761 $x477 (= cell_3_6 4) $x5779 (= cell_3_6 6) $x8675 (= cell_3_6 8) (= cell_3_6 9)))))))
(assert
 (let (($x6050 (= cell_4_6 5)))
 (or (= cell_4_6 1) (= cell_4_6 2) (= cell_4_6 3) (= cell_4_6 4) $x6050 (= cell_4_6 6) (= cell_4_6 7) (= cell_4_6 8) (= cell_4_6 9))))
(assert
 (let (($x2122 (= cell_5_6 8)))
 (let (($x2681 (= cell_5_6 5)))
 (or (= cell_5_6 1) (= cell_5_6 2) (= cell_5_6 3) (= cell_5_6 4) $x2681 (= cell_5_6 6) (= cell_5_6 7) $x2122 (= cell_5_6 9)))))
(assert
 (let (($x4807 (= cell_6_6 5)))
 (or (= cell_6_6 1) (= cell_6_6 2) (= cell_6_6 3) (= cell_6_6 4) $x4807 (= cell_6_6 6) (= cell_6_6 7) (= cell_6_6 8) (= cell_6_6 9))))
(assert
 (let (($x4633 (= cell_7_6 5)))
 (or (= cell_7_6 1) (= cell_7_6 2) (= cell_7_6 3) (= cell_7_6 4) $x4633 (= cell_7_6 6) (= cell_7_6 7) (= cell_7_6 8) (= cell_7_6 9))))
(assert
 (let (($x9283 (= cell_8_6 5)))
 (or (= cell_8_6 1) (= cell_8_6 2) (= cell_8_6 3) (= cell_8_6 4) $x9283 (= cell_8_6 6) (= cell_8_6 7) (= cell_8_6 8) (= cell_8_6 9))))
(assert
 (let (($x4641 (= cell_9_6 5)))
 (or (= cell_9_6 1) (= cell_9_6 2) (= cell_9_6 3) (= cell_9_6 4) $x4641 (= cell_9_6 6) (= cell_9_6 7) (= cell_9_6 8) (= cell_9_6 9))))
(assert
 (let (($x6747 (= cell_1_7 1)))
 (or $x6747 (= cell_1_7 2) (= cell_1_7 3) (= cell_1_7 4) (= cell_1_7 5) (= cell_1_7 6) (= cell_1_7 7) (= cell_1_7 8) (= cell_1_7 9))))
(assert
 (let (($x5294 (= cell_2_7 7)))
 (let (($x9940 (= cell_2_7 4)))
 (let (($x6667 (= cell_2_7 1)))
 (or $x6667 (= cell_2_7 2) (= cell_2_7 3) $x9940 (= cell_2_7 5) (= cell_2_7 6) $x5294 (= cell_2_7 8) (= cell_2_7 9))))))
(assert
 (let (($x4622 (= cell_3_7 7)))
 (let (($x7144 (= cell_3_7 4)))
 (let (($x6137 (= cell_3_7 2)))
 (let (($x8061 (= cell_3_7 1)))
 (or $x8061 $x6137 (= cell_3_7 3) $x7144 (= cell_3_7 5) (= cell_3_7 6) $x4622 (= cell_3_7 8) (= cell_3_7 9)))))))
(assert
 (let (($x640 (= cell_4_7 1)))
 (or $x640 (= cell_4_7 2) (= cell_4_7 3) (= cell_4_7 4) (= cell_4_7 5) (= cell_4_7 6) (= cell_4_7 7) (= cell_4_7 8) (= cell_4_7 9))))
(assert
 (let (($x5732 (= cell_5_7 1)))
 (or $x5732 (= cell_5_7 2) (= cell_5_7 3) (= cell_5_7 4) (= cell_5_7 5) (= cell_5_7 6) (= cell_5_7 7) (= cell_5_7 8) (= cell_5_7 9))))
(assert
 (let (($x9916 (= cell_6_7 8)))
 (let (($x4727 (= cell_6_7 1)))
 (or $x4727 (= cell_6_7 2) (= cell_6_7 3) (= cell_6_7 4) (= cell_6_7 5) (= cell_6_7 6) (= cell_6_7 7) $x9916 (= cell_6_7 9)))))
(assert
 (let (($x4621 (= cell_7_7 1)))
 (or $x4621 (= cell_7_7 2) (= cell_7_7 3) (= cell_7_7 4) (= cell_7_7 5) (= cell_7_7 6) (= cell_7_7 7) (= cell_7_7 8) (= cell_7_7 9))))
(assert
 (let (($x217 (= cell_8_7 1)))
 (or $x217 (= cell_8_7 2) (= cell_8_7 3) (= cell_8_7 4) (= cell_8_7 5) (= cell_8_7 6) (= cell_8_7 7) (= cell_8_7 8) (= cell_8_7 9))))
(assert
 (let (($x2985 (= cell_9_7 1)))
 (or $x2985 (= cell_9_7 2) (= cell_9_7 3) (= cell_9_7 4) (= cell_9_7 5) (= cell_9_7 6) (= cell_9_7 7) (= cell_9_7 8) (= cell_9_7 9))))
(assert
 (let (($x4269 (= cell_1_8 7)))
 (or (= cell_1_8 1) (= cell_1_8 2) (= cell_1_8 3) (= cell_1_8 4) (= cell_1_8 5) (= cell_1_8 6) $x4269 (= cell_1_8 8) (= cell_1_8 9))))
(assert
 (let (($x5971 (= cell_2_8 7)))
 (let (($x6557 (= cell_2_8 4)))
 (let (($x6949 (= cell_2_8 1)))
 (or $x6949 (= cell_2_8 2) (= cell_2_8 3) $x6557 (= cell_2_8 5) (= cell_2_8 6) $x5971 (= cell_2_8 8) (= cell_2_8 9))))))
(assert
 (let (($x5458 (= cell_3_8 7)))
 (let (($x3617 (= cell_3_8 4)))
 (let (($x8649 (= cell_3_8 1)))
 (or $x8649 (= cell_3_8 2) (= cell_3_8 3) $x3617 (= cell_3_8 5) (= cell_3_8 6) $x5458 (= cell_3_8 8) (= cell_3_8 9))))))
(assert
 (let (($x9350 (= cell_4_8 7)))
 (let (($x6780 (= cell_4_8 2)))
 (or (= cell_4_8 1) $x6780 (= cell_4_8 3) (= cell_4_8 4) (= cell_4_8 5) (= cell_4_8 6) $x9350 (= cell_4_8 8) (= cell_4_8 9)))))
(assert
 (let (($x6286 (= cell_5_8 7)))
 (or (= cell_5_8 1) (= cell_5_8 2) (= cell_5_8 3) (= cell_5_8 4) (= cell_5_8 5) (= cell_5_8 6) $x6286 (= cell_5_8 8) (= cell_5_8 9))))
(assert
 (let (($x6208 (= cell_6_8 7)))
 (or (= cell_6_8 1) (= cell_6_8 2) (= cell_6_8 3) (= cell_6_8 4) (= cell_6_8 5) (= cell_6_8 6) $x6208 (= cell_6_8 8) (= cell_6_8 9))))
(assert
 (let (($x4746 (= cell_7_8 8)))
 (let (($x645 (= cell_7_8 7)))
 (or (= cell_7_8 1) (= cell_7_8 2) (= cell_7_8 3) (= cell_7_8 4) (= cell_7_8 5) (= cell_7_8 6) $x645 $x4746 (= cell_7_8 9)))))
(assert
 (let (($x3220 (= cell_8_8 7)))
 (or (= cell_8_8 1) (= cell_8_8 2) (= cell_8_8 3) (= cell_8_8 4) (= cell_8_8 5) (= cell_8_8 6) $x3220 (= cell_8_8 8) (= cell_8_8 9))))
(assert
 (let (($x802 (= cell_9_8 7)))
 (or (= cell_9_8 1) (= cell_9_8 2) (= cell_9_8 3) (= cell_9_8 4) (= cell_9_8 5) (= cell_9_8 6) $x802 (= cell_9_8 8) (= cell_9_8 9))))
(assert
 (let (($x5501 (= cell_1_9 4)))
 (or (= cell_1_9 1) (= cell_1_9 2) (= cell_1_9 3) $x5501 (= cell_1_9 5) (= cell_1_9 6) (= cell_1_9 7) (= cell_1_9 8) (= cell_1_9 9))))
(assert
 (let (($x1962 (= cell_2_9 7)))
 (let (($x1858 (= cell_2_9 4)))
 (let (($x9989 (= cell_2_9 1)))
 (or $x9989 (= cell_2_9 2) (= cell_2_9 3) $x1858 (= cell_2_9 5) (= cell_2_9 6) $x1962 (= cell_2_9 8) (= cell_2_9 9))))))
(assert
 (let (($x8216 (= cell_3_9 7)))
 (let (($x7727 (= cell_3_9 4)))
 (let (($x4030 (= cell_3_9 1)))
 (or $x4030 (= cell_3_9 2) (= cell_3_9 3) $x7727 (= cell_3_9 5) (= cell_3_9 6) $x8216 (= cell_3_9 8) (= cell_3_9 9))))))
(assert
 (let (($x8241 (= cell_4_9 4)))
 (or (= cell_4_9 1) (= cell_4_9 2) (= cell_4_9 3) $x8241 (= cell_4_9 5) (= cell_4_9 6) (= cell_4_9 7) (= cell_4_9 8) (= cell_4_9 9))))
(assert
 (let (($x5508 (= cell_5_9 4)))
 (or (= cell_5_9 1) (= cell_5_9 2) (= cell_5_9 3) $x5508 (= cell_5_9 5) (= cell_5_9 6) (= cell_5_9 7) (= cell_5_9 8) (= cell_5_9 9))))
(assert
 (let (($x3711 (= cell_6_9 4)))
 (or (= cell_6_9 1) (= cell_6_9 2) (= cell_6_9 3) $x3711 (= cell_6_9 5) (= cell_6_9 6) (= cell_6_9 7) (= cell_6_9 8) (= cell_6_9 9))))
(assert
 (let (($x3505 (= cell_7_9 4)))
 (or (= cell_7_9 1) (= cell_7_9 2) (= cell_7_9 3) $x3505 (= cell_7_9 5) (= cell_7_9 6) (= cell_7_9 7) (= cell_7_9 8) (= cell_7_9 9))))
(assert
 (let (($x3274 (= cell_8_9 8)))
 (let (($x2402 (= cell_8_9 4)))
 (or (= cell_8_9 1) (= cell_8_9 2) (= cell_8_9 3) $x2402 (= cell_8_9 5) (= cell_8_9 6) (= cell_8_9 7) $x3274 (= cell_8_9 9)))))
(assert
 (let (($x279 (= cell_9_9 4)))
 (or (= cell_9_9 1) (= cell_9_9 2) (= cell_9_9 3) $x279 (= cell_9_9 5) (= cell_9_9 6) (= cell_9_9 7) (= cell_9_9 8) (= cell_9_9 9))))
(assert
 (and (distinct cell_1_1 cell_1_2 cell_1_3 cell_1_4 cell_1_5 cell_1_6 cell_1_7 cell_1_8 cell_1_9) true))
(assert
 (and (distinct cell_2_1 cell_2_2 cell_2_3 cell_2_4 cell_2_5 cell_2_6 cell_2_7 cell_2_8 cell_2_9) true))
(assert
 (and (distinct cell_3_1 cell_3_2 cell_3_3 cell_3_4 cell_3_5 cell_3_6 cell_3_7 cell_3_8 cell_3_9) true))
(assert
 (and (distinct cell_4_1 cell_4_2 cell_4_3 cell_4_4 cell_4_5 cell_4_6 cell_4_7 cell_4_8 cell_4_9) true))
(assert
 (and (distinct cell_5_1 cell_5_2 cell_5_3 cell_5_4 cell_5_5 cell_5_6 cell_5_7 cell_5_8 cell_5_9) true))
(assert
 (and (distinct cell_6_1 cell_6_2 cell_6_3 cell_6_4 cell_6_5 cell_6_6 cell_6_7 cell_6_8 cell_6_9) true))
(assert
 (and (distinct cell_7_1 cell_7_2 cell_7_3 cell_7_4 cell_7_5 cell_7_6 cell_7_7 cell_7_8 cell_7_9) true))
(assert
 (and (distinct cell_8_1 cell_8_2 cell_8_3 cell_8_4 cell_8_5 cell_8_6 cell_8_7 cell_8_8 cell_8_9) true))
(assert
 (and (distinct cell_9_1 cell_9_2 cell_9_3 cell_9_4 cell_9_5 cell_9_6 cell_9_7 cell_9_8 cell_9_9) true))
(assert
 (and (distinct cell_1_1 cell_2_1 cell_3_1 cell_4_1 cell_5_1 cell_6_1 cell_7_1 cell_8_1 cell_9_1) true))
(assert
 (and (distinct cell_1_2 cell_2_2 cell_3_2 cell_4_2 cell_5_2 cell_6_2 cell_7_2 cell_8_2 cell_9_2) true))
(assert
 (and (distinct cell_1_3 cell_2_3 cell_3_3 cell_4_3 cell_5_3 cell_6_3 cell_7_3 cell_8_3 cell_9_3) true))
(assert
 (and (distinct cell_1_4 cell_2_4 cell_3_4 cell_4_4 cell_5_4 cell_6_4 cell_7_4 cell_8_4 cell_9_4) true))
(assert
 (and (distinct cell_1_5 cell_2_5 cell_3_5 cell_4_5 cell_5_5 cell_6_5 cell_7_5 cell_8_5 cell_9_5) true))
(assert
 (and (distinct cell_1_6 cell_2_6 cell_3_6 cell_4_6 cell_5_6 cell_6_6 cell_7_6 cell_8_6 cell_9_6) true))
(assert
 (and (distinct cell_1_7 cell_2_7 cell_3_7 cell_4_7 cell_5_7 cell_6_7 cell_7_7 cell_8_7 cell_9_7) true))
(assert
 (and (distinct cell_1_8 cell_2_8 cell_3_8 cell_4_8 cell_5_8 cell_6_8 cell_7_8 cell_8_8 cell_9_8) true))
(assert
 (and (distinct cell_1_9 cell_2_9 cell_3_9 cell_4_9 cell_5_9 cell_6_9 cell_7_9 cell_8_9 cell_9_9) true))
(assert
 (and (distinct cell_1_1 cell_1_2 cell_1_3 cell_2_1 cell_2_2 cell_2_3 cell_3_1 cell_3_2 cell_3_3) true))
(assert
 (and (distinct cell_1_4 cell_1_5 cell_1_6 cell_2_4 cell_2_5 cell_2_6 cell_3_4 cell_3_5 cell_3_6) true))
(assert
 (and (distinct cell_1_7 cell_1_8 cell_1_9 cell_2_7 cell_2_8 cell_2_9 cell_3_7 cell_3_8 cell_3_9) true))
(assert
 (and (distinct cell_4_1 cell_4_2 cell_4_3 cell_5_1 cell_5_2 cell_5_3 cell_6_1 cell_6_2 cell_6_3) true))
(assert
 (and (distinct cell_4_4 cell_4_5 cell_4_6 cell_5_4 cell_5_5 cell_5_6 cell_6_4 cell_6_5 cell_6_6) true))
(assert
 (and (distinct cell_4_7 cell_4_8 cell_4_9 cell_5_7 cell_5_8 cell_5_9 cell_6_7 cell_6_8 cell_6_9) true))
(assert
 (and (distinct cell_7_1 cell_7_2 cell_7_3 cell_8_1 cell_8_2 cell_8_3 cell_9_1 cell_9_2 cell_9_3) true))
(assert
 (and (distinct cell_7_4 cell_7_5 cell_7_6 cell_8_4 cell_8_5 cell_8_6 cell_9_4 cell_9_5 cell_9_6) true))
(assert
 (and (distinct cell_7_7 cell_7_8 cell_7_9 cell_8_7 cell_8_8 cell_8_9 cell_9_7 cell_9_8 cell_9_9) true))
(assert
 (let (($x7396 (and (distinct cell_5_9 cell_6_8 cell_7_7 cell_8_6) true)))
 (let (($x3117 (and (distinct cell_2_9 cell_3_8 cell_4_7 cell_5_6 cell_6_5 cell_7_4 cell_8_3 cell_9_2) true)))
 (let (($x4752 (and (distinct cell_1_8 cell_2_7 cell_3_6 cell_4_5 cell_5_4 cell_6_3 cell_7_2 cell_8_1) true)))
 (let (($x4977 (and (distinct cell_1_5 cell_2_4 cell_3_3 cell_4_2) true)))
 (let (($x1817 (and (distinct cell_5_1 cell_6_2 cell_7_3 cell_8_4) true)))
 (let (($x4893 (and (distinct cell_2_1 cell_3_2 cell_4_3 cell_5_4 cell_6_5 cell_7_6 cell_8_7 cell_9_8) true)))
 (let (($x2384 (and (distinct cell_1_2 cell_2_3 cell_3_4 cell_4_5 cell_5_6 cell_6_7 cell_7_8 cell_8_9) true)))
 (let (($x1415 (and (distinct cell_1_5 cell_2_6 cell_3_7 cell_4_8) true)))
 (and $x1415 $x2384 $x4893 $x1817 $x4977 $x4752 $x3117 $x7396))))))))))
(assert
 (= cell_2_1 3))
(check-sat)
